w = 21;
n = 15;
measures = [|3, 3,
|3, 4,
|3, 5,
|3, 6,
|3, 7,
|3, 8,
|3, 9,
|3, 10,
|3, 14,
|3, 18,
|4, 4,
|4, 6,
|4, 11,
|5, 6,
|5, 15,
|];
initial_x = [0, 3, 6, 9, 12, 15, 18, 0, 3, 6, 9, 13, 17, 0, 5];
initial_y = [0, 0, 0, 0, 0, 0, 0, 9, 9, 9, 9, 9, 9, 27, 27];